400
120 120
1 96 419
2 96 663
3 96 816
4 96 332
5 95 476
6 95 286
7 94 748
8 94 82
9 94 595
10 93 560
11 93 408
12 93 645
13 93 778
14 93 719
15 93 701
16 92 237
17 92 380
18 92 64
19 92 642
20 92 527
21 91 154
22 91 861
23 90 128
24 90 986
25 90 397
26 90 385
27 90 198
28 90 30
29 90 486
30 89 298
31 89 953
32 89 922
33 89 547
34 89 364
35 88 223
36 88 455
37 88 136
38 88 924
39 88 839
40 88 923
41 87 152
42 87 564
43 87 809
44 87 270
45 87 641
46 87 572
47 87 909
48 87 146
49 86 498
50 86 804
51 86 227
52 86 227
53 86 566
54 86 553
55 85 768
56 85 716
57 85 484
58 84 740
59 84 449
60 84 30
61 84 2
62 84 281
63 84 277
64 83 27
65 83 214
66 82 156
67 82 52
68 82 615
69 82 112
70 81 744
71 81 275
72 81 266
73 81 804
74 81 410
75 81 963
76 81 525
77 81 596
78 80 508
79 80 439
80 80 271
81 80 95
82 80 711
83 79 444
84 79 760
85 79 559
86 79 979
87 79 329
88 78 926
89 77 844
90 77 153
91 77 548
92 76 869
93 76 258
94 76 509
95 76 36
96 75 887
97 74 722
98 74 344
99 74 529
100 74 387
101 73 81
102 73 888
103 73 511
104 73 758
105 73 562
106 73 624
107 72 48
108 72 537
109 72 530
110 71 509
111 71 130
112 71 951
113 70 380
114 70 37
115 70 941
116 70 491
117 69 744
118 69 971
119 69 993
120 69 663
121 69 347
122 68 299
123 68 969
124 68 600
125 67 328
126 66 466
127 66 685
128 66 550
129 66 226
130 66 557
131 66 964
132 65 56
133 65 311
134 65 66
135 65 177
136 65 330
137 65 362
138 64 648
139 64 868
140 64 226
141 63 533
142 63 164
143 63 915
144 62 229
145 62 327
146 62 248
147 61 136
148 61 964
149 61 904
150 60 157
151 60 73
152 60 625
153 60 797
154 60 410
155 59 969
156 59 312
157 59 322
158 59 116
159 58 647
160 58 201
161 58 825
162 58 50
163 58 29
164 58 114
165 57 672
166 57 494
167 57 92
168 57 381
169 57 342
170 57 860
171 56 107
172 56 897
173 56 181
174 56 111
175 56 754
176 56 148
177 55 135
178 55 527
179 55 55
180 55 329
181 55 666
182 55 211
183 55 684
184 54 413
185 54 521
186 54 409
187 54 681
188 54 858
189 54 772
190 54 822
191 53 224
192 52 632
193 52 952
194 52 808
195 52 869
196 52 871
197 52 694
198 52 864
199 51 641
200 51 290
201 51 590
202 51 854
203 51 264
204 51 680
205 51 809
206 51 129
207 51 574
208 50 511
209 50 265
210 50 63
211 50 269
212 50 144
213 50 304
214 50 818
215 49 748
216 49 92
217 49 115
218 49 735
219 49 268
220 48 398
221 48 603
222 48 345
223 48 588
224 48 3
225 47 980
226 47 563
227 46 982
228 46 759
229 46 770
230 46 840
231 46 555
232 46 292
233 46 29
234 46 416
235 46 26
236 46 146
237 45 971
238 45 222
239 45 199
240 45 966
241 45 627
242 45 480
243 45 161
244 44 159
245 44 224
246 44 149
247 44 203
248 44 970
249 44 244
250 43 142
251 42 400
252 42 517
253 42 471
254 42 230
255 42 307
256 42 736
257 42 142
258 41 464
259 41 276
260 41 813
261 40 159
262 40 630
263 40 86
264 39 172
265 39 769
266 39 496
267 39 326
268 39 193
269 39 676
270 39 199
271 38 181
272 38 651
273 38 550
274 38 474
275 38 278
276 37 697
277 37 469
278 37 396
279 37 982
280 37 445
281 36 279
282 36 674
283 36 350
284 36 860
285 36 382
286 35 88
287 34 25
288 34 301
289 34 968
290 34 276
291 34 169
292 34 236
293 33 27
294 33 930
295 33 115
296 32 853
297 32 698
298 32 530
299 31 92
300 31 826
301 31 193
302 31 375
303 31 576
304 30 79
305 30 226
306 30 899
307 30 650
308 30 511
309 30 325
310 29 651
311 29 932
312 29 274
313 29 355
314 28 786
315 28 532
316 28 104
317 28 164
318 28 365
319 27 555
320 27 807
321 27 196
322 27 711
323 27 241
324 26 426
325 26 202
326 26 931
327 26 171
328 26 877
329 26 542
330 26 198
331 26 843
332 26 353
333 26 24
334 25 433
335 25 289
336 25 146
337 24 181
338 24 477
339 24 573
340 23 819
341 22 167
342 22 816
343 22 327
344 21 735
345 21 870
346 21 929
347 21 394
348 21 879
349 21 482
350 20 816
351 20 33
352 20 821
353 20 951
354 20 954
355 19 949
356 19 839
357 19 619
358 19 786
359 19 343
360 19 671
361 19 253
362 19 652
363 18 302
364 18 982
365 18 853
366 18 255
367 18 885
368 18 846
369 17 250
370 17 926
371 17 194
372 17 980
373 17 410
374 16 855
375 16 902
376 16 894
377 16 328
378 16 937
379 16 771
380 15 935
381 15 356
382 15 565
383 15 790
384 14 339
385 14 300
386 14 946
387 14 20
388 14 783
389 14 432
390 14 426
391 13 42
392 13 17
393 13 453
394 13 734
395 13 995
396 13 553
397 12 742
398 12 10
399 12 689
400 12 593
